language ESSENCE' 1.0

letting n_orders be 2
letting n_colours be 88
letting nbSizes be 2
letting ordSize_FunctionAsRelation_RelationAsSet_Explicit_1 be [1, 2; int(1..2)]
letting ordSize_FunctionAsRelation_RelationAsSet_Explicit_2 be [4, 22; int(1..2)]
letting ordCol_FunctionAsRelation_RelationAsSet_Explicit_1 be [1, 2; int(1..2)]
letting ordCol_FunctionAsRelation_RelationAsSet_Explicit_2 be [1, 2; int(1..2)]
letting col_per_slab be 39
letting fin1 be 2
letting fin2 be 22
letting fin3 be 2
